
Gurobi 7.0.2 (mac64, Python) logging started Wed Nov 29 10:03:36 2017


Gurobi 7.0.2 (mac64, Python) logging started Wed Nov 29 10:13:47 2017


Gurobi 7.0.2 (mac64, Python) logging started Wed Nov 29 10:18:18 2017


Gurobi 7.0.2 (mac64, Python) logging started Wed Nov 29 10:18:32 2017


Gurobi 7.0.2 (mac64, Python) logging started Wed Nov 29 10:18:58 2017


Gurobi 7.0.2 (mac64, Python) logging started Wed Nov 29 11:08:57 2017


Gurobi 7.0.2 (mac64, Python) logging started Wed Nov 29 11:09:29 2017


Gurobi 7.0.2 (mac64, Python) logging started Wed Nov 29 11:12:49 2017


Gurobi 7.0.2 (mac64, Python) logging started Wed Nov 29 11:14:17 2017


Gurobi 7.0.2 (mac64, Python) logging started Wed Nov 29 11:14:32 2017


Gurobi 7.0.2 (mac64, Python) logging started Wed Nov 29 11:15:39 2017

Warning: constraint name "AR1[0,<__main__.Reservoir object at 0x1088089e8>]" has a space
Warning: constraint name "AR1[0,<__main__.Reservoir object at 0x1088089e8>]" has a space
Warning: constraint name "AR1[0,<__main__.Reservoir object at 0x1088089e8>]" has a space
Warning: constraint name "AR1[0,<__main__.Reservoir object at 0x1088089e8>]" has a space
Warning: constraint name "AR1[0,<__main__.Reservoir object at 0x1088089e8>]" has a space
Warning: constraint name "AR1[0,<__main__.Reservoir object at 0x1088089e8>]" has a space
Warning: constraint name "AR1[0,<__main__.Reservoir object at 0x1088089e8>]" has a space
Warning: constraint name "AR1[0,<__main__.Reservoir object at 0x1088089e8>]" has a space
Warning: constraint name "AR1[0,<__main__.Reservoir object at 0x1088089e8>]" has a space
Warning: constraint name "AR1[0,<__main__.Reservoir object at 0x1088089e8>]" has a space
Warning: constraint name "AR1[0,<__main__.Reservoir object at 0x1088089e8>]" has a space
Warning: constraint name "AR1[0,<__main__.Reservoir object at 0x1088089e8>]" has a space
Warning: constraint name "AR1[0,<__main__.Reservoir object at 0x1088089e8>]" has a space
Warning: constraint name "AR1[0,<__main__.Reservoir object at 0x1088089e8>]" has a space
Warning: constraint name "AR1[0,<__main__.Reservoir object at 0x1088089e8>]" has a space
Warning: constraint name "AR1[0,<__main__.Reservoir object at 0x1088089e8>]" has a space
Warning: constraint name "AR1[0,<__main__.Reservoir object at 0x1088089e8>]" has a space
Warning: constraint name "AR1[0,<__main__.Reservoir object at 0x1088089e8>]" has a space
Warning: constraint name "AR1[0,<__main__.Reservoir object at 0x1088089e8>]" has a space
Warning: constraint name "AR1[0,<__main__.Reservoir object at 0x1088089e8>]" has a space
Warning: constraint name "AR1[0,<__main__.Reservoir object at 0x1088089e8>]" has a space
Warning: constraint name "AR1[0,<__main__.Reservoir object at 0x1088089e8>]" has a space
Warning: constraint name "AR1[0,<__main__.Reservoir object at 0x1088089e8>]" has a space
Warning: constraint name "AR1[0,<__main__.Reservoir object at 0x1088089e8>]" has a space
Warning: constraint name "AR1[0,<__main__.Reservoir object at 0x1088089e8>]" has a space
Warning: constraint name "AR1[0,<__main__.Reservoir object at 0x1088089e8>]" has a space
Warning: constraint name "AR1[0,<__main__.Reservoir object at 0x1088089e8>]" has a space
Warning: constraint name "AR1[0,<__main__.Reservoir object at 0x1088089e8>]" has a space
Warning: constraint name "AR1[0,<__main__.Reservoir object at 0x1088089e8>]" has a space
Warning: constraint name "AR1[0,<__main__.Reservoir object at 0x1088089e8>]" has a space
Warning: constraint name "AR1[0,<__main__.Reservoir object at 0x1088089e8>]" has a space
Warning: constraint name "AR1[0,<__main__.Reservoir object at 0x1088089e8>]" has a space
Warning: constraint name "AR1[0,<__main__.Reservoir object at 0x1088089e8>]" has a space
Warning: constraint name "AR1[0,<__main__.Reservoir object at 0x1088089e8>]" has a space
Warning: constraint name "AR1[0,<__main__.Reservoir object at 0x1088089e8>]" has a space
Warning: constraint name "AR1[0,<__main__.Reservoir object at 0x1088089e8>]" has a space
Warning: constraint name "AR1[0,<__main__.Reservoir object at 0x1088089e8>]" has a space
Warning: constraint name "AR1[0,<__main__.Reservoir object at 0x1088089e8>]" has a space
Warning: constraint name "AR1[0,<__main__.Reservoir object at 0x1088089e8>]" has a space
Warning: constraint name "AR1[0,<__main__.Reservoir object at 0x1088089e8>]" has a space
Warning: constraint name "AR1[0,<__main__.Reservoir object at 0x1088089e8>]" has a space
Warning: constraint name "AR1[0,<__main__.Reservoir object at 0x1088089e8>]" has a space
Warning: constraint name "AR1[0,<__main__.Reservoir object at 0x1088089e8>]" has a space
Warning: constraint name "AR1[0,<__main__.Reservoir object at 0x1088089e8>]" has a space
Warning: constraint name "AR1[0,<__main__.Reservoir object at 0x1088089e8>]" has a space
Warning: constraint name "AR1[0,<__main__.Reservoir object at 0x1088089e8>]" has a space
Warning: constraint name "AR1[0,<__main__.Reservoir object at 0x1088089e8>]" has a space
Warning: constraint name "AR1[0,<__main__.Reservoir object at 0x1088089e8>]" has a space
Warning: constraint name "AR1[0,<__main__.Reservoir object at 0x1088089e8>]" has a space
Warning: constraint name "AR1[0,<__main__.Reservoir object at 0x1088089e8>]" has a space
Warning: constraint name "AR1[0,<__main__.Reservoir object at 0x1088089e8>]" has a space
Warning: constraint name "AR1[0,<__main__.Reservoir object at 0x1088089e8>]" has a space

Gurobi 7.0.2 (mac64, Python) logging started Wed Nov 29 11:16:57 2017


Gurobi 7.0.2 (mac64, Python) logging started Wed Nov 29 11:18:19 2017


Gurobi 7.0.2 (mac64, Python) logging started Wed Nov 29 11:22:05 2017


Gurobi 7.0.2 (mac64, Python) logging started Wed Nov 29 11:22:46 2017


Gurobi 7.0.2 (mac64, Python) logging started Wed Nov 29 11:25:10 2017


Gurobi 7.0.2 (mac64, Python) logging started Wed Nov 29 11:26:44 2017


Gurobi 7.0.2 (mac64, Python) logging started Wed Nov 29 11:29:55 2017


Gurobi 7.0.2 (mac64, Python) logging started Wed Nov 29 11:31:11 2017


Gurobi 7.0.2 (mac64, Python) logging started Wed Nov 29 11:31:39 2017


Gurobi 7.0.2 (mac64, Python) logging started Wed Nov 29 11:37:40 2017


Gurobi 7.0.2 (mac64, Python) logging started Wed Nov 29 11:38:51 2017


Gurobi 7.0.2 (mac64, Python) logging started Wed Nov 29 11:45:38 2017


Gurobi 7.0.2 (mac64, Python) logging started Wed Nov 29 11:45:57 2017


Gurobi 7.0.2 (mac64, Python) logging started Wed Nov 29 11:49:54 2017


Gurobi 7.0.2 (mac64, Python) logging started Wed Nov 29 11:55:08 2017


Gurobi 7.0.2 (mac64, Python) logging started Wed Nov 29 11:56:38 2017


Gurobi 7.0.2 (mac64, Python) logging started Wed Nov 29 11:56:41 2017


Gurobi 7.0.2 (mac64, Python) logging started Wed Nov 29 14:17:19 2017


Gurobi 7.0.2 (mac64, Python) logging started Wed Nov 29 14:17:39 2017


Gurobi 7.0.2 (mac64, Python) logging started Wed Nov 29 14:20:54 2017


Gurobi 7.0.2 (mac64, Python) logging started Wed Nov 29 14:22:10 2017


Gurobi 7.0.2 (mac64, Python) logging started Wed Nov 29 14:25:54 2017


Gurobi 7.0.2 (mac64, Python) logging started Wed Nov 29 14:26:09 2017


Gurobi 7.0.2 (mac64, Python) logging started Wed Nov 29 14:27:11 2017


Gurobi 7.0.2 (mac64, Python) logging started Wed Nov 29 14:55:52 2017


Gurobi 7.0.2 (mac64, Python) logging started Thu Nov 30 20:30:10 2017


Gurobi 7.0.2 (mac64, Python) logging started Thu Nov 30 20:42:20 2017


Gurobi 7.0.2 (mac64, Python) logging started Fri Dec  1 11:06:54 2017


Gurobi 7.0.2 (mac64, Python) logging started Fri Dec  1 11:23:55 2017


Gurobi 7.0.2 (mac64, Python) logging started Sat Dec  2 00:19:47 2017


Gurobi 7.0.2 (mac64, Python) logging started Sat Dec  2 12:03:21 2017


Gurobi 7.0.2 (mac64, Python) logging started Sat Dec  2 12:28:53 2017


Gurobi 7.0.2 (mac64, Python) logging started Sat Dec  2 12:31:13 2017


Gurobi 7.0.2 (mac64, Python) logging started Sat Dec  2 12:31:29 2017


Gurobi 7.0.2 (mac64, Python) logging started Sat Dec  2 12:32:33 2017


Gurobi 7.0.2 (mac64, Python) logging started Sat Dec  2 12:33:32 2017


Gurobi 7.0.2 (mac64, Python) logging started Sat Dec  2 12:34:24 2017


Gurobi 7.0.2 (mac64, Python) logging started Sat Dec  2 12:34:40 2017


Gurobi 7.0.2 (mac64, Python) logging started Sat Dec  2 12:34:50 2017


Gurobi 7.0.2 (mac64, Python) logging started Sat Dec  2 12:36:34 2017


Gurobi 7.0.2 (mac64, Python) logging started Sat Dec  2 12:36:59 2017


Gurobi 7.0.2 (mac64, Python) logging started Sat Dec  2 12:37:17 2017


Gurobi 7.0.2 (mac64, Python) logging started Sat Dec  2 12:58:47 2017


Gurobi 7.0.2 (mac64, Python) logging started Sat Dec  2 12:58:53 2017


Gurobi 7.0.2 (mac64, Python) logging started Sat Dec  2 12:59:05 2017


Gurobi 7.0.2 (mac64, Python) logging started Sat Dec  2 13:00:22 2017


Gurobi 7.0.2 (mac64, Python) logging started Sat Dec  2 13:00:36 2017


Gurobi 7.0.2 (mac64, Python) logging started Sat Dec  2 13:01:02 2017


Gurobi 7.0.2 (mac64, Python) logging started Sat Dec  2 13:01:27 2017


Gurobi 7.0.2 (mac64, Python) logging started Sat Dec  2 13:02:21 2017


Gurobi 7.0.2 (mac64, Python) logging started Sat Dec  2 13:02:30 2017


Gurobi 7.0.2 (mac64, Python) logging started Sat Dec  2 13:02:53 2017


Gurobi 7.0.2 (mac64, Python) logging started Sat Dec  2 13:03:24 2017


Gurobi 7.0.2 (mac64, Python) logging started Sat Dec  2 13:03:51 2017


Gurobi 7.0.2 (mac64, Python) logging started Sat Dec  2 13:04:10 2017


Gurobi 7.0.2 (mac64, Python) logging started Sat Dec  2 13:04:40 2017


Gurobi 7.0.2 (mac64, Python) logging started Sat Dec  2 13:04:55 2017


Gurobi 7.0.2 (mac64, Python) logging started Sat Dec  2 13:06:22 2017


Gurobi 7.0.2 (mac64, Python) logging started Sat Dec  2 13:06:33 2017


Gurobi 7.0.2 (mac64, Python) logging started Sat Dec  2 13:24:22 2017


Gurobi 7.0.2 (mac64, Python) logging started Sat Dec  2 13:25:07 2017


Gurobi 7.0.2 (mac64, Python) logging started Sat Dec  2 13:25:16 2017


Gurobi 7.0.2 (mac64, Python) logging started Sat Dec  2 13:25:28 2017


Gurobi 7.0.2 (mac64, Python) logging started Sat Dec  2 13:25:37 2017


Gurobi 7.0.2 (mac64, Python) logging started Sat Dec  2 13:30:07 2017


Gurobi 7.0.2 (mac64, Python) logging started Sat Dec  2 13:32:47 2017


Gurobi 7.0.2 (mac64, Python) logging started Sat Dec  2 15:58:23 2017


Gurobi 7.0.2 (mac64, Python) logging started Sat Dec  2 15:58:55 2017


Gurobi 7.0.2 (mac64, Python) logging started Sat Dec  2 15:59:26 2017


Gurobi 7.0.2 (mac64, Python) logging started Sat Dec  2 16:14:47 2017


Gurobi 7.0.2 (mac64, Python) logging started Sat Dec  2 16:17:18 2017


Gurobi 7.0.2 (mac64, Python) logging started Sat Dec  2 16:17:50 2017


Gurobi 7.0.2 (mac64, Python) logging started Sat Dec  2 16:18:37 2017


Gurobi 7.0.2 (mac64, Python) logging started Sat Dec  2 16:19:45 2017


Gurobi 7.0.2 (mac64, Python) logging started Sat Dec  2 16:37:52 2017


Gurobi 7.0.2 (mac64, Python) logging started Sat Dec  2 16:38:23 2017


Gurobi 7.0.2 (mac64, Python) logging started Sat Dec  2 16:38:55 2017


Gurobi 7.0.2 (mac64, Python) logging started Sat Dec  2 16:40:56 2017


Gurobi 7.0.2 (mac64, Python) logging started Sat Dec  2 16:41:54 2017


Gurobi 7.0.2 (mac64, Python) logging started Sat Dec  2 16:42:42 2017


Gurobi 7.0.2 (mac64, Python) logging started Sat Dec  2 16:44:54 2017


Gurobi 7.0.2 (mac64, Python) logging started Sat Dec  2 16:50:29 2017


Gurobi 7.0.2 (mac64, Python) logging started Sat Dec  2 16:53:01 2017


Gurobi 7.0.2 (mac64, Python) logging started Sat Dec  2 16:53:14 2017


Gurobi 7.0.2 (mac64, Python) logging started Sat Dec  2 16:53:31 2017


Gurobi 7.0.2 (mac64, Python) logging started Sat Dec  2 16:53:46 2017


Gurobi 7.0.2 (mac64, Python) logging started Sat Dec  2 16:54:25 2017


Gurobi 7.0.2 (mac64, Python) logging started Sat Dec  2 16:54:44 2017


Gurobi 7.0.2 (mac64, Python) logging started Sat Dec  2 16:55:07 2017


Gurobi 7.0.2 (mac64, Python) logging started Sat Dec  2 16:55:15 2017


Gurobi 7.0.2 (mac64, Python) logging started Sat Dec  2 16:55:26 2017


Gurobi 7.0.2 (mac64, Python) logging started Sat Dec  2 16:55:50 2017


Gurobi 7.0.2 (mac64, Python) logging started Sat Dec  2 16:56:39 2017


Gurobi 7.0.2 (mac64, Python) logging started Sat Dec  2 17:01:13 2017


Gurobi 7.0.2 (mac64, Python) logging started Sat Dec  2 17:02:00 2017


Gurobi 7.0.2 (mac64, Python) logging started Sun Dec  3 11:11:07 2017


Gurobi 7.0.2 (mac64, Python) logging started Sun Dec  3 11:27:07 2017


Gurobi 7.0.2 (mac64, Python) logging started Sun Dec  3 11:38:21 2017


Gurobi 7.0.2 (mac64, Python) logging started Sun Dec  3 11:38:43 2017


Gurobi 7.0.2 (mac64, Python) logging started Sun Dec  3 11:39:41 2017


Gurobi 7.0.2 (mac64, Python) logging started Sun Dec  3 11:41:48 2017


Gurobi 7.0.2 (mac64, Python) logging started Sun Dec  3 11:42:02 2017


Gurobi 7.0.2 (mac64, Python) logging started Sun Dec  3 11:42:54 2017


Gurobi 7.0.2 (mac64, Python) logging started Sun Dec  3 11:45:53 2017


Gurobi 7.0.2 (mac64, Python) logging started Sun Dec  3 11:48:20 2017


Gurobi 7.0.2 (mac64, Python) logging started Sun Dec  3 11:48:48 2017


Gurobi 7.0.2 (mac64, Python) logging started Sun Dec  3 11:49:31 2017


Gurobi 7.0.2 (mac64, Python) logging started Sun Dec  3 11:50:18 2017


Gurobi 7.0.2 (mac64, Python) logging started Sun Dec  3 11:59:54 2017


Gurobi 7.0.2 (mac64, Python) logging started Sun Dec  3 12:01:14 2017


Gurobi 7.0.2 (mac64, Python) logging started Sun Dec  3 12:01:23 2017


Gurobi 7.0.2 (mac64, Python) logging started Sun Dec  3 12:04:07 2017


Gurobi 7.0.2 (mac64, Python) logging started Sun Dec  3 12:08:10 2017


Gurobi 7.0.2 (mac64, Python) logging started Sun Dec  3 12:25:43 2017


Gurobi 7.0.2 (mac64, Python) logging started Sun Dec  3 12:27:36 2017


Gurobi 7.0.2 (mac64, Python) logging started Sun Dec  3 12:29:00 2017


Gurobi 7.0.2 (mac64, Python) logging started Sun Dec  3 12:30:18 2017


Gurobi 7.0.2 (mac64, Python) logging started Sun Dec  3 12:38:03 2017


Gurobi 7.0.2 (mac64, Python) logging started Sun Dec  3 12:38:24 2017


Gurobi 7.0.2 (mac64, Python) logging started Sun Dec  3 12:45:23 2017


Gurobi 7.0.2 (mac64, Python) logging started Sun Dec  3 12:46:34 2017


Gurobi 7.0.2 (mac64, Python) logging started Sun Dec  3 12:50:18 2017


Gurobi 7.0.2 (mac64, Python) logging started Sun Dec  3 12:53:43 2017


Gurobi 7.0.2 (mac64, Python) logging started Sun Dec  3 12:56:33 2017


Gurobi 7.0.2 (mac64, Python) logging started Sun Dec  3 12:58:15 2017


Gurobi 7.0.2 (mac64, Python) logging started Sun Dec  3 12:58:57 2017


Gurobi 7.0.2 (mac64, Python) logging started Sun Dec  3 13:01:36 2017


Gurobi 7.0.2 (mac64, Python) logging started Sun Dec  3 13:03:31 2017


Gurobi 7.0.2 (mac64, Python) logging started Sun Dec  3 13:05:03 2017


Gurobi 7.0.2 (mac64, Python) logging started Sun Dec  3 13:05:49 2017


Gurobi 7.0.2 (mac64, Python) logging started Sun Dec  3 13:07:09 2017


Gurobi 7.0.2 (mac64, Python) logging started Sun Dec  3 13:53:39 2017

